c Sudoku solution
p cnf 729 0
122 0
167 0
195 0
316 0
359 0
365 0
391 0
427 0
464 0
471 0
483 0
572 0
631 0
655 0
585 0
696 0
717 0
751 0
778 0
828 0
857 0
942 0
382 0
984 0
881 0
999 0
977 0
875 0
786 0
745 0
844 0
337 0
348 0
498 0
324 0
373 0
734 0
792 0
893 0
623 0
729 0
812 0
836 0
763 0
869 0
432 0
415 0
456 0
662 0
449 0
647 0
597 0
674 0
689 0
514 0
618 0
526 0
539 0
252 0
154 0
553 0
541 0
568 0
111 0
219 0
225 0
913 0
921 0
935 0
261 0
958 0
966 0
276 0
294 0
179 0
287 0
188 0
146 0
243 0
133 0
238 0
